nCaps = 10;
task = [9,8,10];
noAgents = 6;
capabilities = [{9,10},{},{4,7,1,3,2,5,6,8},{},{},{9,10}];
isConnected = [|
false,true,false,true,true,false |
true,false,true,false,false,true |
false,true,false,true,false,false |
true,false,true,false,false,true |
true,false,false,false,false,true |
false,true,false,true,true,false |];
